0 168 
1 169 
2 172 
3 172 
4 175 
5 177 
6 175 
7 172 
8 171 
9 168 
10 164 
11 167 
12 165 
13 163 
14 163 
15 161 
16 160 
17 157 
18 159 
19 160 
20 157 
21 162 
22 160 
23 153 
24 150 
25 151 
26 152 
27 152 
28 151 
29 151 
30 145 
31 140 
32 140 
33 130 
34 129 
35 124 
36 124 
37 121 
38 120 
39 117 
40 118 
41 118 
42 117 
43 114 
44 110 
45 109 
46 107 
47 109 
48 110 
49 106 
50 105 
51 106 
52 108 
53 108 
54 107 
55 103 
56 104 
57 105 
58 105 
59 101 
60 96 
61 92 
62 89 
63 88 
64 89 
65 89 
66 87 
67 85 
68 81 
69 87 
70 80 
71 80 
72 79 
73 78 
74 79 
75 76 
76 79 
77 77 
78 75 
79 74 
80 71 
81 71 
82 68 
83 68 
84 63 
85 62 
86 62 
87 62 
88 60 
89 59 
90 57 
91 58 
92 54 
93 53 
94 54 
95 52 
96 54 
97 51 
98 49 
99 49 
100 48 
101 51 
102 47 
103 48 
104 46 
105 45 
106 41 
107 37 
108 37 
109 34 
110 29 
111 32 
112 33 
113 29 
114 32 
115 30 
116 28 
117 28 
118 27 
119 28 
120 26 
121 25 
122 24 
123 21 
124 19 
125 15 
126 14 
127 11 
128 10 
129 9 
130 9 
131 8 
132 7 
133 6 
134 6 
135 4 
136 3 
137 2 
138 0 
139 0 

